results/res_prop_muc/res_Cimatti_mathsat_cores/QF_RDL/fischer3-mutex-2.smt.smt2.res
unsat
( c10
  c100
  c102
  c104
  c11
  c114
  c124
  c13
  c134
  c143
  c15
  c158
  c167
  c173
  c174
  c175
  c177
  c178
  c188
  c19
  c197
  c207
  c219
  c225
  c23
  c231
  c240
  c246
  c247
  c248
  c251
  c260
  c268
  c27
  c280
  c284
  c31
  c319
  c320
  c323
  c331
  c335
  c339
  c343
  c346
  c355
  c36
  c365
  c374
  c385
  c389
  c394
  c406
  c412
  c413
  c414
  c416
  c417
  c427
  c43
  c437
  c447
  c457
  c467
  c476
  c485
  c500
  c509
  c519
  c528
  c53
  c540
  c552
  c558
  c559
  c560
  c562
  c563
  c572
  c580
  c588
  c592
  c596
  c6
  c600
  c630
  c631
  c632
  c633
  c635
  c641
  c645
  c649
  c65
  c653
  c656
  c661
  c665
  c668
  c674
  c676
  c7
  c73
  c77
  c79
  c8
  c85
  c9
  c94 )
